NAME          DCAP_2_4_3_300_SS116
ROWS
 N  OBJ
 L  CON1
 L  CON2
 L  CON3
 L  CON4
 L  CON5
 L  CON6
 L  CON7
 L  CON8
 L  CON9
 L  CON10
 L  CON11
 L  CON12
 E  CON13
 E  CON14
 E  CON15
 E  CON16
 E  CON17
 E  CON18
 E  CON19
 E  CON20
 E  CON21
 E  CON22
 E  CON23
 E  CON24
COLUMNS
    x[1,1]    OBJ       6.180167      CON1      1.000000    
    x[1,1]    CON7      -1.000000     CON8      -1.000000   
    x[1,1]    CON9      -1.000000   
    x[1,2]    OBJ       6.563535      CON2      1.000000    
    x[1,2]    CON8      -1.000000     CON9      -1.000000   
    x[1,3]    OBJ       7.443064      CON3      1.000000    
    x[1,3]    CON9      -1.000000   
    x[2,1]    OBJ       6.732585      CON4      1.000000    
    x[2,1]    CON10     -1.000000     CON11     -1.000000   
    x[2,1]    CON12     -1.000000   
    x[2,2]    OBJ       5.039546      CON5      1.000000    
    x[2,2]    CON11     -1.000000     CON12     -1.000000   
    x[2,3]    OBJ       6.054841      CON6      1.000000    
    x[2,3]    CON12     -1.000000   
    MARKER    'MARKER'                'INTORG'
    u[1,1]    OBJ       48.076654     CON1      -1.000000   
    u[1,2]    OBJ       20.066487     CON2      -1.000000   
    u[1,3]    OBJ       32.230043     CON3      -1.000000   
    u[2,1]    OBJ       49.996186     CON4      -1.000000   
    u[2,2]    OBJ       49.466655     CON5      -1.000000   
    u[2,3]    OBJ       27.484319     CON6      -1.000000   
    y[1,1,1]  OBJ       6.980023      CON7      0.993300    
    y[1,1,1]  CON13     1.000000    
    y[1,1,2]  OBJ       7.347206      CON8      0.648137    
    y[1,1,2]  CON14     1.000000    
    y[1,1,3]  OBJ       9.651529      CON9      0.843726    
    y[1,1,3]  CON15     1.000000    
    y[1,2,1]  OBJ       9.380215      CON7      0.933337    
    y[1,2,1]  CON16     1.000000    
    y[1,2,2]  OBJ       8.725996      CON8      0.600385    
    y[1,2,2]  CON17     1.000000    
    y[1,2,3]  OBJ       7.693818      CON9      0.695928    
    y[1,2,3]  CON18     1.000000    
    y[1,3,1]  OBJ       9.973347      CON7      1.469832    
    y[1,3,1]  CON19     1.000000    
    y[1,3,2]  OBJ       9.162516      CON8      1.044505    
    y[1,3,2]  CON20     1.000000    
    y[1,3,3]  OBJ       5.133554      CON9      0.663685    
    y[1,3,3]  CON21     1.000000    
    y[1,4,1]  OBJ       5.379063      CON7      0.730740    
    y[1,4,1]  CON22     1.000000    
    y[1,4,2]  OBJ       5.124908      CON8      1.109893    
    y[1,4,2]  CON23     1.000000    
    y[1,4,3]  OBJ       9.465842      CON9      1.096847    
    y[1,4,3]  CON24     1.000000    
    y[2,1,1]  OBJ       8.908429      CON10     0.993300    
    y[2,1,1]  CON13     1.000000    
    y[2,1,2]  OBJ       5.774148      CON11     0.648137    
    y[2,1,2]  CON14     1.000000    
    y[2,1,3]  OBJ       8.008595      CON12     0.843726    
    y[2,1,3]  CON15     1.000000    
    y[2,2,1]  OBJ       7.439009      CON10     0.933337    
    y[2,2,1]  CON16     1.000000    
    y[2,2,2]  OBJ       8.660106      CON11     0.600385    
    y[2,2,2]  CON17     1.000000    
    y[2,2,3]  OBJ       7.077816      CON12     0.695928    
    y[2,2,3]  CON18     1.000000    
    y[2,3,1]  OBJ       9.627099      CON10     1.469832    
    y[2,3,1]  CON19     1.000000    
    y[2,3,2]  OBJ       5.645989      CON11     1.044505    
    y[2,3,2]  CON20     1.000000    
    y[2,3,3]  OBJ       9.014526      CON12     0.663685    
    y[2,3,3]  CON21     1.000000    
    y[2,4,1]  OBJ       6.051607      CON10     0.730740    
    y[2,4,1]  CON22     1.000000    
    y[2,4,2]  OBJ       6.579436      CON11     1.109893    
    y[2,4,2]  CON23     1.000000    
    y[2,4,3]  OBJ       6.731408      CON12     1.096847    
    y[2,4,3]  CON24     1.000000    
    z[1,1]    OBJ       682.577954    CON13     1.000000    
    z[1,2]    OBJ       596.801465    CON14     1.000000    
    z[1,3]    OBJ       718.347083    CON15     1.000000    
    z[2,1]    OBJ       737.514246    CON16     1.000000    
    z[2,2]    OBJ       956.628787    CON17     1.000000    
    z[2,3]    OBJ       690.426764    CON18     1.000000    
    z[3,1]    OBJ       845.248999    CON19     1.000000    
    z[3,2]    OBJ       647.651375    CON20     1.000000    
    z[3,3]    OBJ       997.608239    CON21     1.000000    
    z[4,1]    OBJ       627.250720    CON22     1.000000    
    z[4,2]    OBJ       633.129279    CON23     1.000000    
    z[4,3]    OBJ       647.367698    CON24     1.000000    
    MARKER    'MARKER'                 'INTEND'
RHS
    RHS       CON1      -0.000000     CON2      -0.000000   
    RHS       CON3      -0.000000     CON4      -0.000000   
    RHS       CON5      -0.000000     CON6      -0.000000   
    RHS       CON7      -0.000000     CON8      -0.000000   
    RHS       CON9      -0.000000     CON10     -0.000000   
    RHS       CON11     -0.000000     CON12     -0.000000   
    RHS       CON13     1.000000      CON14     1.000000    
    RHS       CON15     1.000000      CON16     1.000000    
    RHS       CON17     1.000000      CON18     1.000000    
    RHS       CON19     1.000000      CON20     1.000000    
    RHS       CON21     1.000000      CON22     1.000000    
    RHS       CON23     1.000000      CON24     1.000000    
BOUNDS
 BV BOUND     u[1,1]  
 BV BOUND     u[1,2]  
 BV BOUND     u[1,3]  
 BV BOUND     u[2,1]  
 BV BOUND     u[2,2]  
 BV BOUND     u[2,3]  
 BV BOUND     y[1,1,1]
 BV BOUND     y[1,1,2]
 BV BOUND     y[1,1,3]
 BV BOUND     y[1,2,1]
 BV BOUND     y[1,2,2]
 BV BOUND     y[1,2,3]
 BV BOUND     y[1,3,1]
 BV BOUND     y[1,3,2]
 BV BOUND     y[1,3,3]
 BV BOUND     y[1,4,1]
 BV BOUND     y[1,4,2]
 BV BOUND     y[1,4,3]
 BV BOUND     y[2,1,1]
 BV BOUND     y[2,1,2]
 BV BOUND     y[2,1,3]
 BV BOUND     y[2,2,1]
 BV BOUND     y[2,2,2]
 BV BOUND     y[2,2,3]
 BV BOUND     y[2,3,1]
 BV BOUND     y[2,3,2]
 BV BOUND     y[2,3,3]
 BV BOUND     y[2,4,1]
 BV BOUND     y[2,4,2]
 BV BOUND     y[2,4,3]
 BV BOUND     z[1,1]  
 BV BOUND     z[1,2]  
 BV BOUND     z[1,3]  
 BV BOUND     z[2,1]  
 BV BOUND     z[2,2]  
 BV BOUND     z[2,3]  
 BV BOUND     z[3,1]  
 BV BOUND     z[3,2]  
 BV BOUND     z[3,3]  
 BV BOUND     z[4,1]  
 BV BOUND     z[4,2]  
 BV BOUND     z[4,3]  
ENDATA
